
  20    0


   0  10 2 4 5 7 8 9 16 17 18 19 
   9   3 15 6 3 
   5   2 11 10 
   4   2 14 12 
   6   2 12 10 
   1   1 10 
   2   1 13 
   2   1 11 
  10   1 10 
   3   1 20
   7   1 20
   4   1 20
   5   1 20
   3   1 20
   3   1 20
   5   1 20
   6   1 20
   9   1 20
   5   1 20
   0   0 
